RT is False
Default write of storage_offers_DA.csv just to have a file (but constraint should be inactive)
Reading model...
...model read.
creating competitive generators file...
...competitive generators recorded.
Loading data...
.. day-ahead data with real-time VRE data read.
Compiling instance...
...instance created.
Creating Offer Mitigation (model will solve as dispatch if TRUE)...
Solving...

Welcome to IBM(R) ILOG(R) CPLEX(R) Interactive Optimizer 12.9.0.0
  with Simplex, Mixed Integer & Barrier Optimizers
5725-A06 5725-A29 5724-Y48 5724-Y49 5724-Y54 5724-Y55 5655-Y21
Copyright IBM Corp. 1988, 2019.  All Rights Reserved.

Type 'help' for a list of available commands.
Type 'help' followed by a command name for more
information on commands.

CPLEX> Logfile 'cplex.log' closed.
Logfile 'C:\Users\Luke\Desktop\test919\logs\tmpop1i4t8g.cplex.log' open.
CPLEX> New value for parallel optimization mode: -1
CPLEX> New value for emphasis for MIP optimization: 1
CPLEX> New value for mixed integer optimality gap tolerance: 0.01
CPLEX> New value for integrality tolerance: 1e-12
CPLEX> New value for deterministic time limit in ticks: 75000
CPLEX> Problem 'C:\Users\Luke\Desktop\test919\logs\tmp6_9nwd2u.pyomo.lp' read.
Read time = 0.05 sec. (3.05 ticks)
CPLEX> Problem name         : C:\Users\Luke\Desktop\test919\logs\tmp6_9nwd2u.pyomo.lp
Objective sense      : Minimize
Variables            :   26085  [Nneg: 1,  Box: 21620,  Free: 4464]
Objective nonzeros   :    2496
Linear constraints   :   27563  [Less: 14006,  Greater: 4416,  Equal: 9141]
  Nonzeros           :   90683
  RHS nonzeros       :   12271

Variables            : Min LB: -5000.000        Max UB: 1000000.       
Objective nonzeros   : Min   : 15.73158         Max   : 124.0997       
Linear constraints   :
  Nonzeros           : Min   : 0.8500000        Max   : 3000.000       
  RHS nonzeros       : Min   : 0.3083333        Max   : 5000.000       
CPLEX> CPXPARAM_Parallel                                -1
CPXPARAM_Emphasis_MIP                            1
CPXPARAM_DetTimeLimit                            75000
CPXPARAM_MIP_Tolerances_MIPGap                   0.01
CPXPARAM_MIP_Tolerances_Integrality              9.9999999999999998e-13
Parallel mode: opportunistic, using up to 12 threads for concurrent optimization.
Tried aggregator 1 time.
LP Presolve eliminated 21384 rows and 15495 columns.
Aggregator did 754 substitutions.
Reduced LP has 5425 rows, 9836 columns, and 32578 nonzeros.
Presolve time = 0.05 sec. (30.58 ticks)
Symmetry aggregator did 5659 additional substitutions.
Initializing dual steep norms . . .

Iteration log . . .
Iteration:     1   Dual objective     =             0.000000
Perturbation started.
Iteration:   101   Dual objective     =             0.000000
Iteration:   328   Dual objective     =            49.864489
Iteration:   540   Dual objective     =            63.239933
Iteration:   758   Dual objective     =            63.515648
Iteration:   943   Dual objective     =            63.534752
Iteration:  1111   Dual objective     =         36064.986740
Iteration:  1371   Dual objective     =         63724.892386
Removing perturbation.

Dual crossover.
  Dual:  Fixing 6 variables.
        5 DMoves:  Infeasibility  3.55271368e-15  Objective  6.36613366e+04
        0 DMoves:  Infeasibility  0.00000000e+00  Objective  6.36613366e+04
  Dual:  Pushed 1, exchanged 5.
  Primal:  Fixed no variables.

Dual simplex solved model.


Dual simplex - Optimal:  Objective =  6.3661336603e+04
Solution time =    0.11 sec.  Iterations = 1387 (0)
Deterministic time = 82.03 ticks  (752.57 ticks/sec)

CPLEX> Solution written to file 'C:\Users\Luke\Desktop\test919\logs\tmpqhc9rcgs.cplex.sol'.
CPLEX> Exporting results... 
...storage offer mitigation file created
Converting model to MPEC...
...converted
NOTE: initial MIP solve with only storage competitive to get feasible solution
Solving...

Welcome to IBM(R) ILOG(R) CPLEX(R) Interactive Optimizer 12.9.0.0
  with Simplex, Mixed Integer & Barrier Optimizers
5725-A06 5725-A29 5724-Y48 5724-Y49 5724-Y54 5724-Y55 5655-Y21
Copyright IBM Corp. 1988, 2019.  All Rights Reserved.

Type 'help' for a list of available commands.
Type 'help' followed by a command name for more
information on commands.

CPLEX> Logfile 'cplex.log' closed.
Logfile 'C:\Users\Luke\Desktop\test919\logs\tmp3ycuqoyc.cplex.log' open.
CPLEX> New value for parallel optimization mode: -1
CPLEX> New value for emphasis for MIP optimization: 1
CPLEX> New value for mixed integer optimality gap tolerance: 0.01
CPLEX> New value for integrality tolerance: 1e-12
CPLEX> New value for deterministic time limit in ticks: 75000
CPLEX> Problem 'C:\Users\Luke\Desktop\test919\logs\tmpbu7eioj4.pyomo.lp' read.
Read time = 0.20 sec. (13.88 ticks)
CPLEX> Problem name         : C:\Users\Luke\Desktop\test919\logs\tmpbu7eioj4.pyomo.lp
Objective sense      : Maximize
Variables            :   53809  [Nneg: 1,  Box: 22004,  Free: 4464,
                                 Binary: 27340]
Objective nonzeros   :    9029
Linear constraints   :  123253  [Less: 41346,  Greater: 59096,  Equal: 22811]
  Nonzeros           :  293217
  RHS nonzeros       :   67491

Variables            : Min LB: -5000.000        Max UB: 1000000.       
Objective nonzeros   : Min   : 0.3083333        Max   : 2500.000       
Linear constraints   :
  Nonzeros           : Min   : 0.3083333        Max   : 1000000.       
  RHS nonzeros       : Min   : 0.3083333        Max   : 1000000.       
CPLEX> CPXPARAM_Parallel                                -1
CPXPARAM_Emphasis_MIP                            1
CPXPARAM_DetTimeLimit                            75000
CPXPARAM_MIP_Tolerances_MIPGap                   0.01
CPXPARAM_MIP_Tolerances_Integrality              9.9999999999999998e-13
Tried aggregator 4 times.
MIP Presolve eliminated 88660 rows and 18963 columns.
MIP Presolve added 3378 rows and 0 columns.
MIP Presolve modified 24847 coefficients.
Aggregator did 12985 substitutions.
Reduced MIP has 24986 rows, 21305 columns, and 71873 nonzeros.
Reduced MIP has 8420 binaries, 0 generals, 0 SOSs, and 0 indicators.
Presolve time = 0.27 sec. (192.35 ticks)
Probing fixed 373 vars, tightened 3922 bounds.
Probing time = 0.06 sec. (19.04 ticks)
Tried aggregator 2 times.
MIP Presolve eliminated 845 rows and 747 columns.
MIP Presolve modified 3041 coefficients.
Aggregator did 34 substitutions.
Reduced MIP has 24107 rows, 20524 columns, and 69329 nonzeros.
Reduced MIP has 8047 binaries, 0 generals, 0 SOSs, and 0 indicators.
Presolve time = 0.11 sec. (89.61 ticks)
Probing fixed 0 vars, tightened 266 bounds.
Probing time = 0.13 sec. (22.94 ticks)
Clique table members: 44815.
MIP emphasis: integer feasibility.
MIP search method: dynamic search.
Parallel mode: opportunistic, using up to 12 threads.
Root relaxation solution time = 0.41 sec. (616.74 ticks)

        Nodes                                         Cuts/
   Node  Left     Objective  IInf  Best Integer    Best Bound    ItCnt     Gap

      0     0     1104.2892   104                   1104.2892     5209         
*     0+    0                         1064.3940     1104.2892             3.75%

Repeating presolve.
Tried aggregator 3 times.
MIP Presolve eliminated 12225 rows and 9400 columns.
MIP Presolve modified 17536 coefficients.
Aggregator did 152 substitutions.
Reduced MIP has 11730 rows, 10972 columns, and 36373 nonzeros.
Reduced MIP has 4031 binaries, 0 generals, 0 SOSs, and 0 indicators.
Presolve time = 0.09 sec. (63.25 ticks)
Probing fixed 299 vars, tightened 34385 bounds.
Probing time = 0.13 sec. (72.02 ticks)
Tried aggregator 5 times.
MIP Presolve eliminated 5417 rows and 5344 columns.
MIP Presolve modified 2490 coefficients.
Aggregator did 115 substitutions.
Reduced MIP has 6198 rows, 5513 columns, and 20832 nonzeros.
Reduced MIP has 1969 binaries, 0 generals, 0 SOSs, and 0 indicators.
Presolve time = 0.05 sec. (33.73 ticks)
Probing fixed 10 vars, tightened 2882 bounds.
Probing time = 0.05 sec. (16.29 ticks)
Tried aggregator 3 times.
MIP Presolve eliminated 43 rows and 40 columns.
MIP Presolve modified 1206 coefficients.
Aggregator did 5 substitutions.
Reduced MIP has 6150 rows, 5467 columns, and 20610 nonzeros.
Reduced MIP has 1956 binaries, 0 generals, 0 SOSs, and 0 indicators.
Presolve time = 0.03 sec. (19.49 ticks)
Represolve time = 0.39 sec. (224.86 ticks)
Probing fixed 24 vars, tightened 2145 bounds.
Probing time = 0.02 sec. (7.93 ticks)
Clique table members: 2610.
MIP emphasis: integer feasibility.
MIP search method: dynamic search.
Parallel mode: opportunistic, using up to 12 threads.
Root relaxation solution time = 0.08 sec. (101.45 ticks)

        Nodes                                         Cuts/
   Node  Left     Objective  IInf  Best Integer    Best Bound    ItCnt     Gap

*     0+    0                         1064.3940     1101.9770             3.53%
      0     0     1101.9770     6     1064.3940     1101.9770     6862    3.53%
      0     0     1101.9770     4     1064.3940       Cuts: 9     6874    3.53%
      0     0     1074.2144     5     1064.3940   Flowcuts: 1     6885    0.92%

Flow cuts applied:  2
Mixed integer rounding cuts applied:  5
Gomory fractional cuts applied:  1

Root node processing (before b&c):
  Real time             =    3.56 sec. (2348.52 ticks)
Parallel b&c, 12 threads:
  Real time             =    0.00 sec. (0.00 ticks)
  Sync time (average)   =    0.00 sec.
  Wait time (average)   =    0.00 sec.
                          ------------
Total (root+branch&cut) =    3.56 sec. (2348.52 ticks)

Solution pool: 1 solution saved.

MIP - Integer optimal, tolerance (0.01/1e-06):  Objective =  1.0643939650e+03
Current MIP best bound =  1.0742144249e+03 (gap = 9.82046, 0.92%)
Solution time =    3.56 sec.  Iterations = 6885  Nodes = 0 (1)
Deterministic time = 2348.67 ticks  (659.37 ticks/sec)

CPLEX> Incumbent solution written to file 'C:\Users\Luke\Desktop\test919\logs\tmpep3_hc23.cplex.sol'.
CPLEX> NOTE: no warmstart specified for MIP iteration, default behavior is true
NOTE: resolving with all competitive generators using storage-only solution to warmstart
Solving...

Welcome to IBM(R) ILOG(R) CPLEX(R) Interactive Optimizer 12.9.0.0
  with Simplex, Mixed Integer & Barrier Optimizers
5725-A06 5725-A29 5724-Y48 5724-Y49 5724-Y54 5724-Y55 5655-Y21
Copyright IBM Corp. 1988, 2019.  All Rights Reserved.

Type 'help' for a list of available commands.
Type 'help' followed by a command name for more
information on commands.

CPLEX> Logfile 'cplex.log' closed.
Logfile 'C:\Users\Luke\Desktop\test919\logs\tmp0_j5miqw.cplex.log' open.
CPLEX> New value for parallel optimization mode: -1
CPLEX> New value for emphasis for MIP optimization: 1
CPLEX> New value for mixed integer optimality gap tolerance: 0.01
CPLEX> New value for integrality tolerance: 1e-12
CPLEX> New value for deterministic time limit in ticks: 75000
CPLEX> Problem 'C:\Users\Luke\Desktop\test919\logs\tmpv52byf7_.pyomo.lp' read.
Read time = 0.20 sec. (13.91 ticks)
CPLEX> MIP start file 'C:\Users\Luke\Desktop\test919\logs\tmpklglcpi0.cplex.mst' read.
CPLEX> Problem name         : C:\Users\Luke\Desktop\test919\logs\tmpv52byf7_.pyomo.lp
Objective sense      : Maximize
Variables            :   54529  [Nneg: 1,  Box: 22724,  Free: 4464,
                                 Binary: 27340]
Objective nonzeros   :    9725
Linear constraints   :  123253  [Less: 41346,  Greater: 59096,  Equal: 22811]
  Nonzeros           :  293217
  RHS nonzeros       :   67491

Variables            : Min LB: -5000.000        Max UB: 1000000.       
Objective nonzeros   : Min   : 0.3083333        Max   : 2500.000       
Linear constraints   :
  Nonzeros           : Min   : 0.3083333        Max   : 1000000.       
  RHS nonzeros       : Min   : 0.3083333        Max   : 1000000.       
CPLEX> CPXPARAM_Parallel                                -1
CPXPARAM_Emphasis_MIP                            1
CPXPARAM_DetTimeLimit                            75000
CPXPARAM_MIP_Tolerances_MIPGap                   0.01
CPXPARAM_MIP_Tolerances_Integrality              9.9999999999999998e-13
Warning:  No solution found from 1 MIP starts.
Retaining values of one MIP start for possible repair.
Tried aggregator 4 times.
MIP Presolve eliminated 88660 rows and 19683 columns.
MIP Presolve added 3378 rows and 0 columns.
MIP Presolve modified 24847 coefficients.
Aggregator did 12985 substitutions.
Reduced MIP has 24986 rows, 21305 columns, and 71873 nonzeros.
Reduced MIP has 8420 binaries, 0 generals, 0 SOSs, and 0 indicators.
Presolve time = 0.28 sec. (192.75 ticks)
Probing fixed 373 vars, tightened 3922 bounds.
Probing time = 0.06 sec. (19.04 ticks)
Tried aggregator 2 times.
MIP Presolve eliminated 845 rows and 747 columns.
MIP Presolve modified 3041 coefficients.
Aggregator did 34 substitutions.
Reduced MIP has 24107 rows, 20524 columns, and 69329 nonzeros.
Reduced MIP has 8047 binaries, 0 generals, 0 SOSs, and 0 indicators.
Presolve time = 0.09 sec. (89.61 ticks)
Probing fixed 0 vars, tightened 266 bounds.
Probing time = 0.13 sec. (22.94 ticks)
Clique table members: 44815.
MIP emphasis: integer feasibility.
MIP search method: dynamic search.
Parallel mode: opportunistic, using up to 12 threads.
Root relaxation solution time = 0.51 sec. (661.65 ticks)

        Nodes                                         Cuts/
   Node  Left     Objective  IInf  Best Integer    Best Bound    ItCnt     Gap

      0     0   153757.7941   374                 153757.7941     6201         
      0     0   150427.7480   265                   Cuts: 235     6519         
      0     0   149008.7354   232                    Cuts: 91     6654         
      0     0   148811.6528   230                    Cuts: 39     6692         
Repair heuristic found nothing.
      0     8   139113.7272   206                 Flowcuts: 5     6756         
Elapsed time = 3.47 sec. (1901.20 ticks, tree = 0.02 MB, solutions = 0)
    215   171   139540.4263   189                 146119.3297     8831         
    462   346   121713.9437   192                 146119.3297    11271         
    685   525    65712.2813   156                 146119.3297    15532         
    806   617     9269.3730   105                 146119.3297    20799         
   1028   660     2419.4965    72                 146119.3297    22000         
   1249   815    -1686.7347    60                 146119.3297    25955         
   1459  1015    19924.8843    91                 145213.9697    31100         
   1692  1117    infeasible                       145213.9697    34450         
   1935  1188    15518.2841    76                 145213.9697    36256         
   2747  1951    17952.3085    94                 145213.9697    57704         
Elapsed time = 16.42 sec. (5009.54 ticks, tree = 130.07 MB, solutions = 0)
   3638  2711   -35604.9549    97                 145213.9697    80836         
   4382  3224    18827.5123   122                 144472.5254    98663         
   5172  3300    infeasible                       144472.5254   100899         
   5979  3913  -140912.2943   130                 144472.5254   127394         
   6181  4605    47729.9990    50                  50536.9726   167074         
   6929   501    41895.7204    35                  48856.8292   178652         
   7957  1011    12453.3971    24                  46320.6256   195245         
   9047  1555      665.3541    51                  46320.6256   216315         
  10027  2057     -551.2619    37                  46320.6256   241615         
  10860  2472    17290.7036     9                  46320.6256   268093         
Elapsed time = 55.89 sec. (16428.59 ticks, tree = 27.28 MB, solutions = 0)
  11709  3020   -45935.4648    48                  46320.6256   307541         
  12591  3251   -72057.6088    41                  46320.6256   316982         
  13543  4208    13501.0682    18                  46320.6256   364149         
  14506  5259   -16901.5361    19                  46320.6256   396885         
  15548  4939    15720.3485    14                  46320.6256   384744         
  16566  5188  -379634.5249    66                  46320.6256   394961         
  17479  6384 -1309010.9375    52                  46320.6256   451021         
  18364  6439    infeasible                        46320.6256   453076         
  19274  6869  -415885.4141    45                  46320.6256   473609         
  20260  7631    -8001.3198     9                  46320.6256   502436         
Elapsed time = 107.28 sec. (25972.65 ticks, tree = 90.77 MB, solutions = 0)
  21254  7862    10304.5805    11                  46320.6256   512604         
  22171  9519    14730.7497    12                  46320.6256   574845         
  23193  8742    10969.3613     8                  46320.6256   544054         
  24152  9778    13900.8068    15                  46320.6256   586568         
  25122 11642    12837.3682    29                  46320.6256   663056         
  26059 10357    15297.2919     9                  46320.6256   605392         
  27050 12011    17306.2960     7                  46320.6256   672864         
  28061 12079    16062.3908     8                  46320.6256   673889         
  29049 12286   -47763.1840    21                  46320.6256   679950         
  29872 13240    16686.6166     8                  46320.6256   721655         
Elapsed time = 158.50 sec. (35518.96 ticks, tree = 134.92 MB, solutions = 0)
  30838 14451    16435.3877     7                  46320.6256   765286         
  31708 13775    16746.0266     7                  46320.6256   738599         
  32666 16097    infeasible                        46320.6256   822379         
  33648 14606     5810.5551    13                  46320.6256   773208         
  34614 14747    -9791.6895     9                  46320.6256   777918         
  35564 16217    infeasible                        46320.6256   827602         
  36586 17580    infeasible                        46320.6256   912702         
  37563 16154    17136.5135     6                  46320.6256   839263         
  38638 17687    -6727.4414    20                  46320.6256   916808         
  39733 17166    14262.4273     9                  46320.6256   895857         
Elapsed time = 168.56 sec. (45062.02 ticks, tree = 165.58 MB, solutions = 0)
  40700 18691    16736.5758     8                  46320.6256   945590         
  41520 19524    11924.8167     5                  46320.6256   980775         
  42314 19587    10269.7793     7                  46320.6256   982042         
  43090 18849    infeasible                        46320.6256   956553         
  43652 20293    17095.6432     6                  46320.6256  1015361         
  44087 19574    17019.1665     8                  46320.6256   986705         
  44140 22358    48613.1767    65                  46320.6256  1098984         
  44721   422    34621.6726    36                  37731.1093  1113031         
  45344   736    15111.0550    26                  37731.1093  1124493         
  45988   978    19612.8372    34                  37621.0390  1133347         
Elapsed time = 186.89 sec. (56089.47 ticks, tree = 14.28 MB, solutions = 0)
  46601  1476    34153.0360    52                  37621.0390  1152124         
  47201  1895   -70513.1676    55                  37621.0390  1166482         
  47813  2081  -473471.7658    92                  37621.0390  1176844         
  48471  2291     7348.6938    39                  37621.0390  1189282         
  49169  2757     5446.2903    24                  37621.0390  1217613         
  49744  3327    12549.9786    21                  37621.0390  1251176         
  50310  3373    19043.1890    17                  37621.0390  1255937         
  50867  3693     7159.9295    16                  37621.0390  1275893         
  51380  3661  -691979.5057   122                  37621.0390  1271312         
  52005  3278    14845.5401     3                  37621.0390  1249816         
Elapsed time = 213.67 sec. (65639.25 ticks, tree = 33.10 MB, solutions = 0)
  52625  3538   -26341.5830    67                  37621.0390  1262147         
  53175  4257     8477.7326    32                  37621.0390  1317384         
  53633  3955     9963.5858    24                  37621.0390  1295018         
  53957  4277   -19256.0736    69                  37621.0390  1323517         
  54278  4837    infeasible                        37621.0390  1339044         
  54565  4370    infeasible                        37621.0390  1320941         
  54746  4592    infeasible                        37621.0390  1333701         
  54846  4655    14738.5858     1                  37621.0390  1333080         
  54859  4635    14592.9256     1                  37621.0390  1332221         

Cover cuts applied:  23
Implied bound cuts applied:  2
Flow cuts applied:  57
Mixed integer rounding cuts applied:  7
Gomory fractional cuts applied:  4

Root node processing (before b&c):
  Real time             =    2.98 sec. (1858.60 ticks)
Parallel b&c, 12 threads:
  Real time             =  223.19 sec. (73263.54 ticks)
  Sync time (average)   =    0.67 sec.
  Wait time (average)   =    0.05 sec.
                          ------------
Total (root+branch&cut) =  226.17 sec. (75122.14 ticks)


MIP - Deterministic time limit exceeded, no integer solution.
Current MIP best bound =  3.7621038967e+04 (gap is infinite)
Solution time =  226.19 sec.  Iterations = 1414454  Nodes = 54872 (6064)
Deterministic time = 75122.30 ticks  (332.12 ticks/sec)

CPLEX> CPLEX Error  1217: No solution exists.
No file written.
CPLEX> gap is infinite, so writing 0
Exporting results... 
